c Standarized MaxSat Instance
c{
c "sha1sum": "8bacf0686e01180ae7dfafbe53eec9e9daed79f6",
c "nvars": 40,
c "ncls": 1404,
c "nhards": 0,
c "nhard_len_stats":
c    { "min": 0, "max": 0, "ave": 0.00,
c      "stddev": 0.00 },
c "nsofts": 1404,
c "nsoft_len_stats":
c    { "min": 2, "max": 2, "ave": 2.00,
c      "stddev": 0.00 },
c "nsoft_wts": 10,
c "soft_wt_stats":
c    { "min": 1, "max": 10, "ave": 5.66,
c      "stddev": 2.82 }
c}
c------------------------------------------------------------
c File:  san200_0.9_2.clq
c
c SOURCE: Laura Sanchis (laura@cs.colgate.edu)
c
c REFERENCE: "Test Case Construction for the Vertex Cover Problem", 
c DIMACS Workshop on Computational Support for Discrete Mathematics, 
c March, 1992, with additional work in a to be published technical
c report.
c
c 200 vertices 17910 edges 60 max clique
c 200 1990 140 409 8180 25
p wcnf 40 1404 7945
9 1 2 0
9 -1 -2 0
4 1 3 0
4 -1 -3 0
8 1 4 0
8 -1 -4 0
8 1 5 0
8 -1 -5 0
10 1 6 0
10 -1 -6 0
2 1 7 0
2 -1 -7 0
4 1 8 0
4 -1 -8 0
8 1 9 0
8 -1 -9 0
3 1 10 0
3 -1 -10 0
6 1 11 0
6 -1 -11 0
5 1 12 0
5 -1 -12 0
7 1 13 0
7 -1 -13 0
4 1 14 0
4 -1 -14 0
6 1 15 0
6 -1 -15 0
10 1 17 0
10 -1 -17 0
10 1 18 0
10 -1 -18 0
7 1 19 0
7 -1 -19 0
8 1 20 0
8 -1 -20 0
2 1 21 0
2 -1 -21 0
7 1 22 0
7 -1 -22 0
1 1 23 0
1 -1 -23 0
3 1 24 0
3 -1 -24 0
2 1 25 0
2 -1 -25 0
9 1 26 0
9 -1 -26 0
2 1 27 0
2 -1 -27 0
5 1 29 0
5 -1 -29 0
2 1 31 0
2 -1 -31 0
2 1 32 0
2 -1 -32 0
10 1 33 0
10 -1 -33 0
3 1 34 0
3 -1 -34 0
6 1 35 0
6 -1 -35 0
9 1 36 0
9 -1 -36 0
7 1 37 0
7 -1 -37 0
3 1 39 0
3 -1 -39 0
7 1 40 0
7 -1 -40 0
6 2 3 0
6 -2 -3 0
5 2 4 0
5 -2 -4 0
10 2 5 0
10 -2 -5 0
3 2 6 0
3 -2 -6 0
8 2 7 0
8 -2 -7 0
6 2 8 0
6 -2 -8 0
8 2 9 0
8 -2 -9 0
5 2 10 0
5 -2 -10 0
9 2 11 0
9 -2 -11 0
3 2 12 0
3 -2 -12 0
4 2 13 0
4 -2 -13 0
9 2 14 0
9 -2 -14 0
10 2 15 0
10 -2 -15 0
1 2 16 0
1 -2 -16 0
10 2 17 0
10 -2 -17 0
6 2 18 0
6 -2 -18 0
1 2 19 0
1 -2 -19 0
2 2 20 0
2 -2 -20 0
7 2 21 0
7 -2 -21 0
9 2 22 0
9 -2 -22 0
4 2 23 0
4 -2 -23 0
1 2 24 0
1 -2 -24 0
1 2 25 0
1 -2 -25 0
5 2 26 0
5 -2 -26 0
1 2 27 0
1 -2 -27 0
3 2 28 0
3 -2 -28 0
10 2 29 0
10 -2 -29 0
10 2 30 0
10 -2 -30 0
9 2 31 0
9 -2 -31 0
3 2 32 0
3 -2 -32 0
6 2 33 0
6 -2 -33 0
4 2 34 0
4 -2 -34 0
8 2 36 0
8 -2 -36 0
6 2 38 0
6 -2 -38 0
7 2 40 0
7 -2 -40 0
6 3 4 0
6 -3 -4 0
1 3 5 0
1 -3 -5 0
5 3 6 0
5 -3 -6 0
10 3 7 0
10 -3 -7 0
10 3 8 0
10 -3 -8 0
8 3 9 0
8 -3 -9 0
3 3 10 0
3 -3 -10 0
8 3 11 0
8 -3 -11 0
7 3 12 0
7 -3 -12 0
4 3 13 0
4 -3 -13 0
7 3 14 0
7 -3 -14 0
2 3 15 0
2 -3 -15 0
5 3 16 0
5 -3 -16 0
9 3 17 0
9 -3 -17 0
9 3 18 0
9 -3 -18 0
4 3 19 0
4 -3 -19 0
3 3 20 0
3 -3 -20 0
9 3 21 0
9 -3 -21 0
4 3 22 0
4 -3 -22 0
7 3 23 0
7 -3 -23 0
10 3 24 0
10 -3 -24 0
6 3 25 0
6 -3 -25 0
7 3 26 0
7 -3 -26 0
9 3 27 0
9 -3 -27 0
5 3 28 0
5 -3 -28 0
10 3 29 0
10 -3 -29 0
4 3 30 0
4 -3 -30 0
9 3 31 0
9 -3 -31 0
7 3 32 0
7 -3 -32 0
10 3 34 0
10 -3 -34 0
5 3 35 0
5 -3 -35 0
3 3 36 0
3 -3 -36 0
10 3 37 0
10 -3 -37 0
10 3 38 0
10 -3 -38 0
2 3 39 0
2 -3 -39 0
9 3 40 0
9 -3 -40 0
7 4 6 0
7 -4 -6 0
5 4 7 0
5 -4 -7 0
7 4 8 0
7 -4 -8 0
3 4 9 0
3 -4 -9 0
8 4 11 0
8 -4 -11 0
4 4 12 0
4 -4 -12 0
5 4 13 0
5 -4 -13 0
3 4 14 0
3 -4 -14 0
2 4 15 0
2 -4 -15 0
3 4 16 0
3 -4 -16 0
6 4 17 0
6 -4 -17 0
5 4 18 0
5 -4 -18 0
2 4 19 0
2 -4 -19 0
10 4 20 0
10 -4 -20 0
2 4 21 0
2 -4 -21 0
2 4 22 0
2 -4 -22 0
5 4 23 0
5 -4 -23 0
8 4 24 0
8 -4 -24 0
10 4 25 0
10 -4 -25 0
10 4 26 0
10 -4 -26 0
7 4 27 0
7 -4 -27 0
4 4 28 0
4 -4 -28 0
8 4 29 0
8 -4 -29 0
4 4 30 0
4 -4 -30 0
3 4 31 0
3 -4 -31 0
3 4 33 0
3 -4 -33 0
6 4 34 0
6 -4 -34 0
3 4 35 0
3 -4 -35 0
2 4 36 0
2 -4 -36 0
8 4 37 0
8 -4 -37 0
2 4 38 0
2 -4 -38 0
8 4 39 0
8 -4 -39 0
2 5 6 0
2 -5 -6 0
8 5 7 0
8 -5 -7 0
1 5 8 0
1 -5 -8 0
10 5 9 0
10 -5 -9 0
1 5 12 0
1 -5 -12 0
6 5 13 0
6 -5 -13 0
2 5 14 0
2 -5 -14 0
3 5 15 0
3 -5 -15 0
8 5 16 0
8 -5 -16 0
8 5 17 0
8 -5 -17 0
7 5 18 0
7 -5 -18 0
10 5 19 0
10 -5 -19 0
7 5 20 0
7 -5 -20 0
8 5 21 0
8 -5 -21 0
1 5 22 0
1 -5 -22 0
2 5 23 0
2 -5 -23 0
6 5 24 0
6 -5 -24 0
1 5 25 0
1 -5 -25 0
1 5 26 0
1 -5 -26 0
3 5 28 0
3 -5 -28 0
5 5 29 0
5 -5 -29 0
9 5 30 0
9 -5 -30 0
6 5 31 0
6 -5 -31 0
8 5 34 0
8 -5 -34 0
1 5 35 0
1 -5 -35 0
2 5 36 0
2 -5 -36 0
10 5 38 0
10 -5 -38 0
3 5 39 0
3 -5 -39 0
9 6 8 0
9 -6 -8 0
2 6 10 0
2 -6 -10 0
10 6 11 0
10 -6 -11 0
1 6 12 0
1 -6 -12 0
9 6 14 0
9 -6 -14 0
1 6 15 0
1 -6 -15 0
1 6 16 0
1 -6 -16 0
10 6 17 0
10 -6 -17 0
6 6 18 0
6 -6 -18 0
2 6 19 0
2 -6 -19 0
2 6 20 0
2 -6 -20 0
4 6 21 0
4 -6 -21 0
10 6 22 0
10 -6 -22 0
9 6 23 0
9 -6 -23 0
4 6 24 0
4 -6 -24 0
6 6 25 0
6 -6 -25 0
6 6 26 0
6 -6 -26 0
5 6 27 0
5 -6 -27 0
7 6 28 0
7 -6 -28 0
1 6 29 0
1 -6 -29 0
6 6 30 0
6 -6 -30 0
8 6 32 0
8 -6 -32 0
4 6 33 0
4 -6 -33 0
10 6 34 0
10 -6 -34 0
6 6 36 0
6 -6 -36 0
9 6 37 0
9 -6 -37 0
8 6 38 0
8 -6 -38 0
7 6 39 0
7 -6 -39 0
1 6 40 0
1 -6 -40 0
8 7 8 0
8 -7 -8 0
9 7 9 0
9 -7 -9 0
10 7 10 0
10 -7 -10 0
9 7 11 0
9 -7 -11 0
9 7 12 0
9 -7 -12 0
10 7 14 0
10 -7 -14 0
8 7 15 0
8 -7 -15 0
10 7 16 0
10 -7 -16 0
10 7 17 0
10 -7 -17 0
7 7 18 0
7 -7 -18 0
5 7 19 0
5 -7 -19 0
2 7 20 0
2 -7 -20 0
9 7 21 0
9 -7 -21 0
9 7 22 0
9 -7 -22 0
1 7 23 0
1 -7 -23 0
7 7 24 0
7 -7 -24 0
3 7 25 0
3 -7 -25 0
7 7 26 0
7 -7 -26 0
3 7 27 0
3 -7 -27 0
8 7 28 0
8 -7 -28 0
4 7 29 0
4 -7 -29 0
4 7 30 0
4 -7 -30 0
3 7 31 0
3 -7 -31 0
1 7 32 0
1 -7 -32 0
7 7 33 0
7 -7 -33 0
3 7 34 0
3 -7 -34 0
7 7 35 0
7 -7 -35 0
6 7 36 0
6 -7 -36 0
10 7 37 0
10 -7 -37 0
3 7 38 0
3 -7 -38 0
6 7 39 0
6 -7 -39 0
8 7 40 0
8 -7 -40 0
2 8 9 0
2 -8 -9 0
5 8 10 0
5 -8 -10 0
6 8 11 0
6 -8 -11 0
10 8 12 0
10 -8 -12 0
5 8 13 0
5 -8 -13 0
4 8 14 0
4 -8 -14 0
9 8 15 0
9 -8 -15 0
5 8 16 0
5 -8 -16 0
1 8 17 0
1 -8 -17 0
4 8 18 0
4 -8 -18 0
6 8 19 0
6 -8 -19 0
9 8 20 0
9 -8 -20 0
3 8 21 0
3 -8 -21 0
7 8 22 0
7 -8 -22 0
5 8 23 0
5 -8 -23 0
5 8 25 0
5 -8 -25 0
4 8 26 0
4 -8 -26 0
8 8 27 0
8 -8 -27 0
2 8 28 0
2 -8 -28 0
7 8 29 0
7 -8 -29 0
1 8 30 0
1 -8 -30 0
5 8 31 0
5 -8 -31 0
7 8 32 0
7 -8 -32 0
7 8 33 0
7 -8 -33 0
7 8 34 0
7 -8 -34 0
4 8 35 0
4 -8 -35 0
2 8 36 0
2 -8 -36 0
7 8 37 0
7 -8 -37 0
7 8 38 0
7 -8 -38 0
8 8 39 0
8 -8 -39 0
4 8 40 0
4 -8 -40 0
8 9 11 0
8 -9 -11 0
3 9 13 0
3 -9 -13 0
10 9 14 0
10 -9 -14 0
7 9 16 0
7 -9 -16 0
7 9 18 0
7 -9 -18 0
3 9 19 0
3 -9 -19 0
6 9 20 0
6 -9 -20 0
1 9 21 0
1 -9 -21 0
3 9 22 0
3 -9 -22 0
9 9 23 0
9 -9 -23 0
7 9 24 0
7 -9 -24 0
1 9 25 0
1 -9 -25 0
2 9 26 0
2 -9 -26 0
4 9 27 0
4 -9 -27 0
6 9 28 0
6 -9 -28 0
6 9 29 0
6 -9 -29 0
7 9 30 0
7 -9 -30 0
3 9 31 0
3 -9 -31 0
8 9 32 0
8 -9 -32 0
3 9 33 0
3 -9 -33 0
4 9 34 0
4 -9 -34 0
2 9 35 0
2 -9 -35 0
10 9 36 0
10 -9 -36 0
1 9 38 0
1 -9 -38 0
9 9 39 0
9 -9 -39 0
4 9 40 0
4 -9 -40 0
2 10 11 0
2 -10 -11 0
5 10 12 0
5 -10 -12 0
10 10 13 0
10 -10 -13 0
10 10 14 0
10 -10 -14 0
8 10 15 0
8 -10 -15 0
7 10 16 0
7 -10 -16 0
2 10 17 0
2 -10 -17 0
7 10 18 0
7 -10 -18 0
4 10 19 0
4 -10 -19 0
8 10 20 0
8 -10 -20 0
10 10 21 0
10 -10 -21 0
10 10 22 0
10 -10 -22 0
9 10 24 0
9 -10 -24 0
3 10 25 0
3 -10 -25 0
8 10 26 0
8 -10 -26 0
6 10 27 0
6 -10 -27 0
3 10 28 0
3 -10 -28 0
10 10 29 0
10 -10 -29 0
10 10 30 0
10 -10 -30 0
9 10 31 0
9 -10 -31 0
5 10 32 0
5 -10 -32 0
6 10 33 0
6 -10 -33 0
2 10 34 0
2 -10 -34 0
3 10 35 0
3 -10 -35 0
9 10 36 0
9 -10 -36 0
5 10 37 0
5 -10 -37 0
5 10 38 0
5 -10 -38 0
9 10 40 0
9 -10 -40 0
5 11 12 0
5 -11 -12 0
3 11 13 0
3 -11 -13 0
2 11 14 0
2 -11 -14 0
7 11 15 0
7 -11 -15 0
8 11 16 0
8 -11 -16 0
2 11 17 0
2 -11 -17 0
7 11 18 0
7 -11 -18 0
5 11 19 0
5 -11 -19 0
9 11 20 0
9 -11 -20 0
8 11 21 0
8 -11 -21 0
2 11 22 0
2 -11 -22 0
3 11 23 0
3 -11 -23 0
5 11 24 0
5 -11 -24 0
2 11 26 0
2 -11 -26 0
2 11 27 0
2 -11 -27 0
4 11 28 0
4 -11 -28 0
4 11 29 0
4 -11 -29 0
10 11 30 0
10 -11 -30 0
10 11 31 0
10 -11 -31 0
7 11 32 0
7 -11 -32 0
9 11 33 0
9 -11 -33 0
9 11 35 0
9 -11 -35 0
5 11 36 0
5 -11 -36 0
4 11 37 0
4 -11 -37 0
4 11 38 0
4 -11 -38 0
7 11 39 0
7 -11 -39 0
7 11 40 0
7 -11 -40 0
3 12 14 0
3 -12 -14 0
2 12 15 0
2 -12 -15 0
1 12 16 0
1 -12 -16 0
2 12 17 0
2 -12 -17 0
7 12 18 0
7 -12 -18 0
4 12 19 0
4 -12 -19 0
3 12 20 0
3 -12 -20 0
4 12 21 0
4 -12 -21 0
1 12 22 0
1 -12 -22 0
5 12 23 0
5 -12 -23 0
10 12 24 0
10 -12 -24 0
6 12 25 0
6 -12 -25 0
3 12 27 0
3 -12 -27 0
7 12 28 0
7 -12 -28 0
8 12 29 0
8 -12 -29 0
5 12 30 0
5 -12 -30 0
2 12 31 0
2 -12 -31 0
9 12 32 0
9 -12 -32 0
7 12 33 0
7 -12 -33 0
6 12 34 0
6 -12 -34 0
3 12 35 0
3 -12 -35 0
6 12 36 0
6 -12 -36 0
5 12 37 0
5 -12 -37 0
9 12 38 0
9 -12 -38 0
4 12 40 0
4 -12 -40 0
3 13 14 0
3 -13 -14 0
4 13 15 0
4 -13 -15 0
8 13 18 0
8 -13 -18 0
7 13 20 0
7 -13 -20 0
10 13 21 0
10 -13 -21 0
4 13 22 0
4 -13 -22 0
9 13 23 0
9 -13 -23 0
2 13 24 0
2 -13 -24 0
5 13 25 0
5 -13 -25 0
1 13 26 0
1 -13 -26 0
8 13 27 0
8 -13 -27 0
8 13 28 0
8 -13 -28 0
3 13 29 0
3 -13 -29 0
2 13 30 0
2 -13 -30 0
9 13 31 0
9 -13 -31 0
8 13 32 0
8 -13 -32 0
1 13 33 0
1 -13 -33 0
5 13 35 0
5 -13 -35 0
10 13 37 0
10 -13 -37 0
8 13 38 0
8 -13 -38 0
3 13 39 0
3 -13 -39 0
5 13 40 0
5 -13 -40 0
9 14 15 0
9 -14 -15 0
1 14 16 0
1 -14 -16 0
1 14 17 0
1 -14 -17 0
4 14 18 0
4 -14 -18 0
4 14 19 0
4 -14 -19 0
7 14 20 0
7 -14 -20 0
9 14 21 0
9 -14 -21 0
2 14 22 0
2 -14 -22 0
1 14 24 0
1 -14 -24 0
1 14 25 0
1 -14 -25 0
5 14 26 0
5 -14 -26 0
8 14 27 0
8 -14 -27 0
7 14 28 0
7 -14 -28 0
5 14 29 0
5 -14 -29 0
2 14 30 0
2 -14 -30 0
6 14 31 0
6 -14 -31 0
6 14 32 0
6 -14 -32 0
6 14 33 0
6 -14 -33 0
6 14 34 0
6 -14 -34 0
4 14 35 0
4 -14 -35 0
4 14 36 0
4 -14 -36 0
9 14 37 0
9 -14 -37 0
5 14 38 0
5 -14 -38 0
2 14 39 0
2 -14 -39 0
7 14 40 0
7 -14 -40 0
6 15 16 0
6 -15 -16 0
7 15 17 0
7 -15 -17 0
6 15 18 0
6 -15 -18 0
3 15 19 0
3 -15 -19 0
9 15 20 0
9 -15 -20 0
1 15 22 0
1 -15 -22 0
1 15 23 0
1 -15 -23 0
10 15 24 0
10 -15 -24 0
2 15 25 0
2 -15 -25 0
5 15 26 0
5 -15 -26 0
3 15 27 0
3 -15 -27 0
9 15 28 0
9 -15 -28 0
3 15 30 0
3 -15 -30 0
4 15 31 0
4 -15 -31 0
9 15 32 0
9 -15 -32 0
4 15 34 0
4 -15 -34 0
9 15 35 0
9 -15 -35 0
7 15 36 0
7 -15 -36 0
1 15 37 0
1 -15 -37 0
3 15 38 0
3 -15 -38 0
8 15 39 0
8 -15 -39 0
7 15 40 0
7 -15 -40 0
9 16 17 0
9 -16 -17 0
4 16 18 0
4 -16 -18 0
3 16 19 0
3 -16 -19 0
2 16 20 0
2 -16 -20 0
7 16 21 0
7 -16 -21 0
2 16 22 0
2 -16 -22 0
7 16 23 0
7 -16 -23 0
8 16 24 0
8 -16 -24 0
8 16 25 0
8 -16 -25 0
3 16 26 0
3 -16 -26 0
5 16 27 0
5 -16 -27 0
4 16 28 0
4 -16 -28 0
5 16 29 0
5 -16 -29 0
3 16 30 0
3 -16 -30 0
4 16 31 0
4 -16 -31 0
6 16 33 0
6 -16 -33 0
2 16 34 0
2 -16 -34 0
6 16 35 0
6 -16 -35 0
1 16 36 0
1 -16 -36 0
4 16 37 0
4 -16 -37 0
4 16 38 0
4 -16 -38 0
4 16 39 0
4 -16 -39 0
8 16 40 0
8 -16 -40 0
3 17 19 0
3 -17 -19 0
7 17 20 0
7 -17 -20 0
6 17 21 0
6 -17 -21 0
10 17 22 0
10 -17 -22 0
7 17 23 0
7 -17 -23 0
9 17 24 0
9 -17 -24 0
7 17 25 0
7 -17 -25 0
4 17 26 0
4 -17 -26 0
7 17 27 0
7 -17 -27 0
1 17 28 0
1 -17 -28 0
6 17 29 0
6 -17 -29 0
9 17 30 0
9 -17 -30 0
7 17 31 0
7 -17 -31 0
7 17 32 0
7 -17 -32 0
6 17 34 0
6 -17 -34 0
5 17 35 0
5 -17 -35 0
4 17 36 0
4 -17 -36 0
8 17 37 0
8 -17 -37 0
9 17 38 0
9 -17 -38 0
7 17 39 0
7 -17 -39 0
2 17 40 0
2 -17 -40 0
1 18 21 0
1 -18 -21 0
1 18 23 0
1 -18 -23 0
7 18 24 0
7 -18 -24 0
2 18 25 0
2 -18 -25 0
7 18 26 0
7 -18 -26 0
8 18 27 0
8 -18 -27 0
6 18 28 0
6 -18 -28 0
1 18 29 0
1 -18 -29 0
1 18 30 0
1 -18 -30 0
4 18 31 0
4 -18 -31 0
3 18 32 0
3 -18 -32 0
7 18 33 0
7 -18 -33 0
9 18 35 0
9 -18 -35 0
2 18 37 0
2 -18 -37 0
4 18 38 0
4 -18 -38 0
7 18 39 0
7 -18 -39 0
9 18 40 0
9 -18 -40 0
7 19 20 0
7 -19 -20 0
4 19 21 0
4 -19 -21 0
9 19 22 0
9 -19 -22 0
2 19 23 0
2 -19 -23 0
2 19 24 0
2 -19 -24 0
6 19 25 0
6 -19 -25 0
9 19 26 0
9 -19 -26 0
7 19 27 0
7 -19 -27 0
10 19 28 0
10 -19 -28 0
2 19 29 0
2 -19 -29 0
4 19 30 0
4 -19 -30 0
8 19 31 0
8 -19 -31 0
9 19 32 0
9 -19 -32 0
6 19 33 0
6 -19 -33 0
8 19 34 0
8 -19 -34 0
10 19 35 0
10 -19 -35 0
3 19 36 0
3 -19 -36 0
10 19 37 0
10 -19 -37 0
6 19 39 0
6 -19 -39 0
10 19 40 0
10 -19 -40 0
5 20 21 0
5 -20 -21 0
6 20 22 0
6 -20 -22 0
10 20 23 0
10 -20 -23 0
8 20 24 0
8 -20 -24 0
9 20 25 0
9 -20 -25 0
6 20 27 0
6 -20 -27 0
7 20 28 0
7 -20 -28 0
10 20 29 0
10 -20 -29 0
10 20 30 0
10 -20 -30 0
4 20 32 0
4 -20 -32 0
9 20 33 0
9 -20 -33 0
6 20 34 0
6 -20 -34 0
7 20 35 0
7 -20 -35 0
8 20 36 0
8 -20 -36 0
8 20 37 0
8 -20 -37 0
8 20 38 0
8 -20 -38 0
3 20 39 0
3 -20 -39 0
7 20 40 0
7 -20 -40 0
5 21 22 0
5 -21 -22 0
2 21 23 0
2 -21 -23 0
8 21 24 0
8 -21 -24 0
9 21 25 0
9 -21 -25 0
9 21 26 0
9 -21 -26 0
7 21 27 0
7 -21 -27 0
5 21 28 0
5 -21 -28 0
7 21 29 0
7 -21 -29 0
6 21 30 0
6 -21 -30 0
7 21 31 0
7 -21 -31 0
6 21 32 0
6 -21 -32 0
2 21 33 0
2 -21 -33 0
6 21 34 0
6 -21 -34 0
1 21 35 0
1 -21 -35 0
8 21 36 0
8 -21 -36 0
6 21 37 0
6 -21 -37 0
9 21 38 0
9 -21 -38 0
6 21 39 0
6 -21 -39 0
2 21 40 0
2 -21 -40 0
5 22 23 0
5 -22 -23 0
6 22 24 0
6 -22 -24 0
1 22 25 0
1 -22 -25 0
9 22 26 0
9 -22 -26 0
4 22 27 0
4 -22 -27 0
7 22 29 0
7 -22 -29 0
5 22 32 0
5 -22 -32 0
2 22 33 0
2 -22 -33 0
5 22 34 0
5 -22 -34 0
3 22 35 0
3 -22 -35 0
5 22 36 0
5 -22 -36 0
1 22 37 0
1 -22 -37 0
8 22 38 0
8 -22 -38 0
6 22 39 0
6 -22 -39 0
9 22 40 0
9 -22 -40 0
6 23 24 0
6 -23 -24 0
5 23 25 0
5 -23 -25 0
5 23 26 0
5 -23 -26 0
10 23 27 0
10 -23 -27 0
1 23 28 0
1 -23 -28 0
1 23 29 0
1 -23 -29 0
7 23 30 0
7 -23 -30 0
6 23 31 0
6 -23 -31 0
3 23 33 0
3 -23 -33 0
3 23 35 0
3 -23 -35 0
7 23 36 0
7 -23 -36 0
10 23 37 0
10 -23 -37 0
8 23 38 0
8 -23 -38 0
5 23 39 0
5 -23 -39 0
5 23 40 0
5 -23 -40 0
9 24 25 0
9 -24 -25 0
10 24 26 0
10 -24 -26 0
10 24 27 0
10 -24 -27 0
9 24 28 0
9 -24 -28 0
8 24 30 0
8 -24 -30 0
4 24 31 0
4 -24 -31 0
6 24 32 0
6 -24 -32 0
3 24 33 0
3 -24 -33 0
5 24 34 0
5 -24 -34 0
10 24 35 0
10 -24 -35 0
5 24 36 0
5 -24 -36 0
9 24 37 0
9 -24 -37 0
10 24 38 0
10 -24 -38 0
2 24 39 0
2 -24 -39 0
5 24 40 0
5 -24 -40 0
8 25 26 0
8 -25 -26 0
8 25 28 0
8 -25 -28 0
10 25 29 0
10 -25 -29 0
3 25 30 0
3 -25 -30 0
8 25 31 0
8 -25 -31 0
10 25 32 0
10 -25 -32 0
4 25 33 0
4 -25 -33 0
5 25 34 0
5 -25 -34 0
6 25 35 0
6 -25 -35 0
6 25 36 0
6 -25 -36 0
7 25 37 0
7 -25 -37 0
2 25 38 0
2 -25 -38 0
5 25 39 0
5 -25 -39 0
4 25 40 0
4 -25 -40 0
7 26 27 0
7 -26 -27 0
10 26 28 0
10 -26 -28 0
3 26 29 0
3 -26 -29 0
7 26 30 0
7 -26 -30 0
9 26 31 0
9 -26 -31 0
2 26 32 0
2 -26 -32 0
4 26 33 0
4 -26 -33 0
2 26 35 0
2 -26 -35 0
7 26 36 0
7 -26 -36 0
6 26 37 0
6 -26 -37 0
7 26 38 0
7 -26 -38 0
6 26 40 0
6 -26 -40 0
1 27 28 0
1 -27 -28 0
6 27 29 0
6 -27 -29 0
6 27 30 0
6 -27 -30 0
3 27 31 0
3 -27 -31 0
1 27 32 0
1 -27 -32 0
4 27 33 0
4 -27 -33 0
1 27 34 0
1 -27 -34 0
10 27 35 0
10 -27 -35 0
7 27 36 0
7 -27 -36 0
8 27 37 0
8 -27 -37 0
9 27 38 0
9 -27 -38 0
10 27 39 0
10 -27 -39 0
2 27 40 0
2 -27 -40 0
5 28 29 0
5 -28 -29 0
5 28 30 0
5 -28 -30 0
8 28 33 0
8 -28 -33 0
7 28 34 0
7 -28 -34 0
10 28 35 0
10 -28 -35 0
2 28 36 0
2 -28 -36 0
3 28 37 0
3 -28 -37 0
9 28 38 0
9 -28 -38 0
4 28 39 0
4 -28 -39 0
9 28 40 0
9 -28 -40 0
8 29 30 0
8 -29 -30 0
5 29 31 0
5 -29 -31 0
3 29 32 0
3 -29 -32 0
10 29 33 0
10 -29 -33 0
2 29 35 0
2 -29 -35 0
9 29 37 0
9 -29 -37 0
7 29 38 0
7 -29 -38 0
8 29 39 0
8 -29 -39 0
10 29 40 0
10 -29 -40 0
2 30 31 0
2 -30 -31 0
3 30 32 0
3 -30 -32 0
2 30 33 0
2 -30 -33 0
3 30 34 0
3 -30 -34 0
7 30 35 0
7 -30 -35 0
2 30 36 0
2 -30 -36 0
2 30 37 0
2 -30 -37 0
3 30 39 0
3 -30 -39 0
10 30 40 0
10 -30 -40 0
1 31 32 0
1 -31 -32 0
2 31 33 0
2 -31 -33 0
2 31 34 0
2 -31 -34 0
5 31 35 0
5 -31 -35 0
7 31 36 0
7 -31 -36 0
10 31 37 0
10 -31 -37 0
2 31 38 0
2 -31 -38 0
7 31 39 0
7 -31 -39 0
1 31 40 0
1 -31 -40 0
4 32 33 0
4 -32 -33 0
5 32 35 0
5 -32 -35 0
5 32 37 0
5 -32 -37 0
3 32 38 0
3 -32 -38 0
3 32 39 0
3 -32 -39 0
10 32 40 0
10 -32 -40 0
6 33 34 0
6 -33 -34 0
2 33 35 0
2 -33 -35 0
1 33 36 0
1 -33 -36 0
5 33 37 0
5 -33 -37 0
9 33 38 0
9 -33 -38 0
8 33 39 0
8 -33 -39 0
4 33 40 0
4 -33 -40 0
10 34 35 0
10 -34 -35 0
1 34 36 0
1 -34 -36 0
6 34 38 0
6 -34 -38 0
3 34 39 0
3 -34 -39 0
7 35 36 0
7 -35 -36 0
7 35 37 0
7 -35 -37 0
4 35 38 0
4 -35 -38 0
9 35 39 0
9 -35 -39 0
7 35 40 0
7 -35 -40 0
4 36 37 0
4 -36 -37 0
1 36 38 0
1 -36 -38 0
8 36 39 0
8 -36 -39 0
9 36 40 0
9 -36 -40 0
7 37 39 0
7 -37 -39 0
7 37 40 0
7 -37 -40 0
10 38 40 0
10 -38 -40 0
4 39 40 0
4 -39 -40 0
